8192
15, 43, 33, 10, 9, 8, 41, 19, 45, 3, 17, 18, 31, 22, 1, 32, 49, 36, 37, 48, 24, 5, 6, 4, 25, 12, 51, 11, 52, 14, 13, 47, 26, 27, 28, 46, 16, 29, 30, 2, 7, 42, 21, 23, 20, 50, 44, 34, 35, 39, 40, 38
